language Essence 1.3

letting course_load be
        function(1 --> 11, 2 --> 19, 3 --> 11, 4 --> 5, 5 --> 1, 6 --> 17, 7 --> 9, 8 --> 5, 9 --> 10, 10 --> 7,
                 11 --> 16, 12 --> 15, 13 --> 24, 14 --> 18, 15 --> 14, 16 --> 14, 17 --> 16, 18 --> 21, 19 --> 15,
                 20 --> 4, 21 --> 20, 22 --> 12, 23 --> 1, 24 --> 14, 25 --> 7, 26 --> 15, 27 --> 13, 28 --> 2,
                 29 --> 16, 30 --> 9, 31 --> 12, 32 --> 7, 33 --> 3, 34 --> 19, 35 --> 18, 36 --> 12, 37 --> 10,
                 38 --> 24, 39 --> 5, 40 --> 14, 41 --> 12, 42 --> 7, 43 --> 9, 44 --> 16, 45 --> 24, 46 --> 12,
                 47 --> 12)
letting courses_per_period_lb be 1
letting courses_per_period_ub be 10
letting load_per_period_lb be 20
letting load_per_period_ub be 34
letting n_courses be 47
letting n_periods be 17
letting prerequisite be
        relation((29, 2), (29, 6), (29, 8), (29, 9), (29, 14), (29, 15), (29, 16), (30, 2), (30, 3), (30, 4), (30, 6),
                 (30, 7), (30, 11), (30, 12), (30, 13), (30, 14), (30, 16), (30, 17), (30, 18), (31, 5), (31, 6),
                 (31, 7), (31, 8), (31, 9), (31, 14), (31, 15), (31, 17), (32, 2), (32, 5), (32, 8), (32, 12), (32, 13),
                 (32, 14), (32, 17), (33, 3), (33, 6), (33, 7), (33, 8), (33, 10), (33, 11), (33, 12), (33, 13),
                 (33, 15), (33, 16), (33, 17), (33, 18), (34, 3), (34, 6), (34, 7), (34, 9), (34, 11), (34, 12),
                 (34, 13), (34, 16), (35, 5), (35, 9), (35, 12), (35, 13), (35, 14), (35, 15), (36, 2), (36, 3),
                 (36, 4), (36, 5), (36, 6), (36, 7), (36, 8), (36, 9), (36, 10), (36, 11), (36, 14), (36, 18), (37, 2),
                 (37, 3), (37, 5), (37, 7), (37, 9), (37, 11), (37, 16), (37, 17), (37, 18), (38, 2), (38, 5), (38, 9),
                 (38, 11), (38, 15), (38, 16), (39, 2), (39, 3), (39, 6), (39, 7), (39, 9), (39, 10), (39, 11),
                 (39, 12), (39, 14), (39, 17), (40, 3), (40, 4), (40, 5), (40, 10), (40, 11), (40, 12), (40, 14),
                 (40, 17), (40, 18), (41, 3), (41, 4), (41, 5), (41, 7), (41, 8), (41, 11), (41, 13), (41, 14),
                 (41, 16), (42, 3), (42, 4), (42, 7), (42, 8), (42, 9), (42, 10), (42, 11), (42, 12), (42, 14),
                 (42, 15), (43, 3), (43, 4), (43, 5), (43, 7), (43, 10), (43, 11), (43, 14), (43, 16), (43, 18),
                 (44, 2), (44, 3), (44, 6), (44, 7), (44, 9), (44, 10), (44, 11), (44, 14), (44, 18), (45, 3), (45, 4),
                 (45, 5), (45, 7), (45, 8), (45, 9), (45, 10))
$ Visualisation for prerequisite
$ 29  2
$ 29  6
$ 29  8
$ 29  9
$ 29 14
$ 29 15
$ 29 16
$ 30  2
$ 30  3
$ 30  4
$ 30  6
$ 30  7
$ 30 11
$ 30 12
$ 30 13
$ 30 14
$ 30 16
$ 30 17
$ 30 18
$ 31  5
$ 31  6
$ 31  7
$ 31  8
$ 31  9
$ 31 14
$ 31 15
$ 31 17
$ 32  2
$ 32  5
$ 32  8
$ 32 12
$ 32 13
$ 32 14
$ 32 17
$ 33  3
$ 33  6
$ 33  7
$ 33  8
$ 33 10
$ 33 11
$ 33 12
$ 33 13
$ 33 15
$ 33 16
$ 33 17
$ 33 18
$ 34  3
$ 34  6
$ 34  7
$ 34  9
$ 34 11
$ 34 12
$ 34 13
$ 34 16
$ 35  5
$ 35  9
$ 35 12
$ 35 13
$ 35 14
$ 35 15
$ 36  2
$ 36  3
$ 36  4
$ 36  5
$ 36  6
$ 36  7
$ 36  8
$ 36  9
$ 36 10
$ 36 11
$ 36 14
$ 36 18
$ 37  2
$ 37  3
$ 37  5
$ 37  7
$ 37  9
$ 37 11
$ 37 16
$ 37 17
$ 37 18
$ 38  2
$ 38  5
$ 38  9
$ 38 11
$ 38 15
$ 38 16
$ 39  2
$ 39  3
$ 39  6
$ 39  7
$ 39  9
$ 39 10
$ 39 11
$ 39 12
$ 39 14
$ 39 17
$ 40  3
$ 40  4
$ 40  5
$ 40 10
$ 40 11
$ 40 12
$ 40 14
$ 40 17
$ 40 18
$ 41  3
$ 41  4
$ 41  5
$ 41  7
$ 41  8
$ 41 11
$ 41 13
$ 41 14
$ 41 16
$ 42  3
$ 42  4
$ 42  7
$ 42  8
$ 42  9
$ 42 10
$ 42 11
$ 42 12
$ 42 14
$ 42 15
$ 43  3
$ 43  4
$ 43  5
$ 43  7
$ 43 10
$ 43 11
$ 43 14
$ 43 16
$ 43 18
$ 44  2
$ 44  3
$ 44  6
$ 44  7
$ 44  9
$ 44 10
$ 44 11
$ 44 14
$ 44 18
$ 45  3
$ 45  4
$ 45  5
$ 45  7
$ 45  8
$ 45  9
$ 45 10

